(set-logic QF_SLIA)
(set-option :produce-models true)
(declare-const X String)
; ^[A-Z]{1}[AEIOUX]{1}[A-Z]{2}((\d{2}((0[13578]|1[02])(0[1-9]|[12][0-9]|3[01])|(0[13-9]|1[0-2])(0[1-9]|[12][0-9]|30)|02(0[1-9]|1[0-9]|2[0-8])))|([02468][048]|[13579][26])0229)[HM]{1}(AS|BC|BS|CC|CS|CH|CL|CM|DF|DG|GT|GR|HG|JC|MC|MN|MS|NT|NL|OC|PL|QT|QR|SP|SL|SR|TC|TS|TL|VZ|YN|ZS|NE)[B-DF-HJ-NP-TV-Z]{3}[0-9A-Z]{1}[0-9]$
(assert (str.in_re X (re.++ ((_ re.loop 1 1) (re.range "A" "Z")) ((_ re.loop 1 1) (re.union (str.to_re "A") (str.to_re "E") (str.to_re "I") (str.to_re "O") (str.to_re "U") (str.to_re "X"))) ((_ re.loop 2 2) (re.range "A" "Z")) (re.union (re.++ ((_ re.loop 2 2) (re.range "0" "9")) (re.union (re.++ (re.union (re.++ (str.to_re "0") (re.union (str.to_re "1") (str.to_re "3") (str.to_re "5") (str.to_re "7") (str.to_re "8"))) (re.++ (str.to_re "1") (re.union (str.to_re "0") (str.to_re "2")))) (re.union (re.++ (str.to_re "0") (re.range "1" "9")) (re.++ (re.union (str.to_re "1") (str.to_re "2")) (re.range "0" "9")) (re.++ (str.to_re "3") (re.union (str.to_re "0") (str.to_re "1"))))) (re.++ (re.union (re.++ (str.to_re "0") (re.union (str.to_re "1") (re.range "3" "9"))) (re.++ (str.to_re "1") (re.range "0" "2"))) (re.union (re.++ (str.to_re "0") (re.range "1" "9")) (re.++ (re.union (str.to_re "1") (str.to_re "2")) (re.range "0" "9")) (str.to_re "30"))) (re.++ (str.to_re "02") (re.union (re.++ (str.to_re "0") (re.range "1" "9")) (re.++ (str.to_re "1") (re.range "0" "9")) (re.++ (str.to_re "2") (re.range "0" "8")))))) (re.++ (re.union (re.++ (re.union (str.to_re "0") (str.to_re "2") (str.to_re "4") (str.to_re "6") (str.to_re "8")) (re.union (str.to_re "0") (str.to_re "4") (str.to_re "8"))) (re.++ (re.union (str.to_re "1") (str.to_re "3") (str.to_re "5") (str.to_re "7") (str.to_re "9")) (re.union (str.to_re "2") (str.to_re "6")))) (str.to_re "0229"))) ((_ re.loop 1 1) (re.union (str.to_re "H") (str.to_re "M"))) (re.union (str.to_re "AS") (str.to_re "BC") (str.to_re "BS") (str.to_re "CC") (str.to_re "CS") (str.to_re "CH") (str.to_re "CL") (str.to_re "CM") (str.to_re "DF") (str.to_re "DG") (str.to_re "GT") (str.to_re "GR") (str.to_re "HG") (str.to_re "JC") (str.to_re "MC") (str.to_re "MN") (str.to_re "MS") (str.to_re "NT") (str.to_re "NL") (str.to_re "OC") (str.to_re "PL") (str.to_re "QT") (str.to_re "QR") (str.to_re "SP") (str.to_re "SL") (str.to_re "SR") (str.to_re "TC") (str.to_re "TS") (str.to_re "TL") (str.to_re "VZ") (str.to_re "YN") (str.to_re "ZS") (str.to_re "NE")) ((_ re.loop 3 3) (re.union (re.range "B" "D") (re.range "F" "H") (re.range "J" "N") (re.range "P" "T") (re.range "V" "Z"))) ((_ re.loop 1 1) (re.union (re.range "0" "9") (re.range "A" "Z"))) (re.range "0" "9") (str.to_re "\u{0a}"))))
; ShadowNet\dsearchresltAID\x2FUser-Agent\x3AFen\u{ea}treEye\x2Fdss\x2Fcc\.2_0_0\.
(assert (not (str.in_re X (re.++ (str.to_re "ShadowNet") (re.range "0" "9") (str.to_re "searchresltAID/User-Agent:Fen\u{ea}treEye/dss/cc.2_0_0.\u{0a}")))))
(assert (> (str.len X) 10))
(check-sat)
